50
11032

622 324
423 75
874 594
556 938
239 948
259 270
227 527
328 5
381 998
674 706
103 28
74 259
729 707
355 60
979 528
171 687
449 757
65 762
556 311
448 404
859 29
152 772
241 967
751 249
104 345
172 531
69 692
334 637
259 58
809 883
522 76
591 364
614 483
75 826
709 482
132 415
756 87
319 182
130 926
397 307
384 542
153 351
96 384
934 143
874 262
825 855
167 9
173 52
65 626
48 181
